(declare-const x Int)
(declare-const y Int)

(to-poly
  (* (- (^ x 5) 15552)
     (+ (^ x 20)
        (* (- 15708) (^ x 15))
        (* 138771724 (^ x 10))
        (* (- 432104148432) (^ x 5))
        614198284585616)))

(poly/factor
 (+ (^ x 25)
    (* (- 31260) (^ x 20))
    (* 383062540 (^ x 15))
    (* (- 2590282000080) (^ x 10))
    (* 7334282001000080 (^ x 5))
    (- 9552011721875500032)))

(poly/factor
 (+ (^ x 25)
    (* (- 31260) (^ x 20))
    (* 383062540 (^ x 15))
    (* (- 2590282000080) (^ x 10))
    (* 7334282001000080 (^ x 5))
    (- 9552011721875500032))
 :max-prime 3)

(poly/factor
 (* (- 11) (+ (^ x 25)
              (* (- 31260) (^ x 20))
              (* 383062540 (^ x 15))
              (* (- 2590282000080) (^ x 10))
              (* 7334282001000080 (^ x 5))
              (- 9552011721875500032))))
